c 90_4_checker_5cl.cnf
c
c field = 90
c formula set type = 4_checker_5cl
c
p cnf 5 6
170 
172 
174 
176 
-168 
171 
173 
175 
177 
-169 
50 
82 
114 
146 
-18 
51 
83 
115 
147 
-19 
206 
234 
262 
290 
-318 
207 
235 
263 
291 
-319 
